51	3

12	12	10	

0	0	0	0	3	2	3	4	
5	5	2	2	2	5	9	
5	3	5	2	2	6	7	
1	5	4	3	2	5	7	
2	2	4	4	2	8	13	
3	4	1	4	2	10	13	
2	5	5	4	2	10	11	
5	4	1	4	2	12	14	
3	3	5	2	2	11	13	
3	3	3	2	1	12	
1	3	2	4	2	12	15	
9	1	4	4	1	16	
6	3	2	2	1	17	
2	5	5	4	1	16	
5	1	5	4	2	18	19	
4	3	2	3	2	20	21	
2	2	2	2	1	19	
6	4	5	4	1	21	
6	5	3	3	1	21	
8	1	6	2	1	22	
2	2	4	6	3	22	23	24	
5	5	2	2	2	25	29	
5	3	5	2	2	26	27	
1	5	4	3	2	25	27	
2	2	4	4	2	28	33	
3	4	1	4	2	30	33	
2	5	5	4	2	30	31	
5	4	1	4	2	32	34	
3	3	5	2	2	31	33	
3	3	3	2	1	32	
1	3	2	4	2	32	35	
9	1	4	4	1	36	
6	3	2	2	1	37	
2	5	5	4	1	36	
5	1	5	4	2	38	39	
4	3	2	3	2	40	41	
2	2	2	2	1	39	
6	4	5	4	1	41	
6	5	3	3	1	41	
8	1	6	2	1	42	
2	2	4	6	3	42	43	44	
5	5	2	2	2	45	49	
5	3	5	2	2	46	47	
1	5	4	3	2	45	47	
2	2	4	4	1	48	
3	4	1	4	1	50	
2	5	5	4	1	50	
5	4	1	4	1	51	
3	3	5	2	1	51	
3	3	3	2	1	51	
0	0	0	0	0	
